AMPL Practice/Probelm13_sensitivity/Problem13.dat
#Sets
set I := i1 i2 i3;
set J := j1 j2 j3 j4;


#Parameters
param d:=
	
	j1	300
	j2	320
	j3	800
	j4	390;	
	
param s:=
	
	i1	250
	i2	800
	i3	760;

	
param c:
		j1	j2	j3	j4:=
	i1	1	2	1	3
	i2	3	5	1	4
	i3	2	2	2	2;