AMPL Practice/Probelm13_sensitivity/Problem13.out
***** Iteration: 1 *****Cost = 2570

:        x  x.rc    :=
i1 j1   250   0
i1 j2     0   1
i1 j3     0   0
i1 j4     0   2
i2 j1     0   2
i2 j2     0   4
i2 j3   800   0
i2 j4     0   3
i3 j1    50   0
i3 j2   320   0
i3 j3     0   0
i3 j4   390   0
;

:  co1.dual co1.slack co2.dual co2.slack    :=
i1     0         0         .        .
i2     0         0         .        .
i3     1         0         .        .
j1      .        .        1         0
j2      .        .        1         0
j3      .        .        1         0
j4      .        .        1         0
;

***** Iteration: 2 *****Cost = 2820

:        x  x.rc    :=
i1 j1   250   0
i1 j2     0   1
i1 j3     0   0
i1 j4     0   2
i2 j1     0   2
i2 j2     0   4
i2 j3   800   0
i2 j4     0   3
i3 j1    50   0
i3 j2   320   0
i3 j3     0   0
i3 j4   390   0
;

:  co1.dual co1.slack co2.dual co2.slack    :=
i1      0        0         .        .
i2     -1        0         .        .
i3      0        0         .        .
j1      .        .        2         0
j2      .        .        2         0
j3      .        .        2         0
j4      .        .        2         0
;

***** Iteration: 3 *****Cost = 3070

:        x  x.rc    :=
i1 j1   250   0
i1 j2     0   1
i1 j3     0   0
i1 j4     0   2
i2 j1     0   2
i2 j2     0   4
i2 j3   800   0
i2 j4     0   3
i3 j1    50   0
i3 j2   320   0
i3 j3     0   0
i3 j4   390   0
;

:  co1.dual co1.slack co2.dual co2.slack    :=
i1      0        0         .        .
i2     -2        0         .        .
i3     -1        0         .        .
j1      .        .        3         0
j2      .        .        3         0
j3      .        .        3         0
j4      .        .        3         0
;

***** Iteration: 4 *****Cost = 3320

:        x  x.rc    :=
i1 j1   250   0
i1 j2     0   1
i1 j3     0   0
i1 j4     0   2
i2 j1     0   2
i2 j2     0   4
i2 j3   800   0
i2 j4     0   3
i3 j1    50   0
i3 j2   320   0
i3 j3     0   0
i3 j4   390   0
;

:  co1.dual co1.slack co2.dual co2.slack    :=
i1      0        0         .        .
i2     -3        0         .        .
i3     -2        0         .        .
j1      .        .        4         0
j2      .        .        4         0
j3      .        .        4         0
j4      .        .        4         0
;

***** Iteration: 5 *****Cost = 3570

:        x  x.rc    :=
i1 j1   250   0
i1 j2     0   1
i1 j3     0   0
i1 j4     0   2
i2 j1     0   2
i2 j2     0   4
i2 j3   800   0
i2 j4     0   3
i3 j1    50   0
i3 j2   320   0
i3 j3     0   0
i3 j4   390   0
;

:  co1.dual co1.slack co2.dual co2.slack    :=
i1      0        0         .        .
i2     -4        0         .        .
i3     -3        0         .        .
j1      .        .        5         0
j2      .        .        5         0
j3      .        .        5         0
j4      .        .        5         0
;

***** Iteration: 6 *****Cost = 3820

:        x  x.rc    :=
i1 j1   250   0
i1 j2     0   1
i1 j3     0   0
i1 j4     0   2
i2 j1     0   2
i2 j2     0   4
i2 j3   800   0
i2 j4     0   3
i3 j1    50   0
i3 j2   320   0
i3 j3     0   0
i3 j4   390   0
;

:  co1.dual co1.slack co2.dual co2.slack    :=
i1      0        0         .        .
i2     -5        0         .        .
i3     -4        0         .        .
j1      .        .        6         0
j2      .        .        6         0
j3      .        .        6         0
j4      .        .        6         0
;

